presolving:
(round 1, fast)       936 del vars, 11738 del conss, 0 add conss, 0 chg bounds, 9828 chg sides, 0 chg coeffs, 0 upgd conss, 0 impls, 19869 clqs
   (0.1s) running MILP presolver
   (0.1s) MILP presolver found nothing
(round 2, exhaustive) 936 del vars, 11738 del conss, 0 add conss, 0 chg bounds, 9828 chg sides, 0 chg coeffs, 19870 upgd conss, 0 impls, 19869 clqs
(round 3, medium)     936 del vars, 11849 del conss, 111 add conss, 0 chg bounds, 9962 chg sides, 245 chg coeffs, 19870 upgd conss, 0 impls, 19869 clqs
   (0.5s) probing: 51/9867 (0.5%) - 0 fixings, 0 aggregations, 0 implications, 0 bound changes
   (0.5s) probing aborted: 50/50 successive totally useless probings
   (0.6s) symmetry computation started: requiring (bin +, int -, cont +), (fixed: bin -, int +, cont -)
   (0.6s) no symmetry present
presolving (4 rounds: 4 fast, 3 medium, 2 exhaustive):
 936 deleted vars, 11850 deleted constraints, 111 added constraints, 0 tightened bounds, 0 added holes, 9962 changed sides, 245 changed coefficients
 0 implications, 19869 cliques
presolved problem has 9867 variables (9867 bin, 0 int, 0 impl, 0 cont) and 19869 constraints
  19869 constraints of type <setppc>
Presolving Time: 0.55

 time | node  | left  |LP iter|LP it/n|mem/heur|mdpt |vars |cons |rows |cuts |sepa|confs|strbr|  dualbound   | primalbound  |  gap   | compl. 
p 0.7s|     1 |     0 |     0 |     - |  clique|   0 |9867 |  19k|  19k|   0 |  0 |   0 |   0 | 0.000000e+00 |-7.809621e+04 |    Inf | unknown
  1.2s|     1 |     0 |  1750 |     - |   134M |   0 |9867 |  19k|  19k|   0 |  0 |  23 |   0 |-5.318469e+04 |-7.809621e+04 |  46.84%| unknown
r 1.2s|     1 |     0 |  1750 |     - |rounding|   0 |9867 |  19k|  19k|   0 |  0 |  23 |   0 |-5.318469e+04 |-6.917036e+04 |  30.06%| unknown
  4.2s|     1 |     0 |  1896 |     - |   141M |   0 |9867 |  19k|  19k|   4 |  1 |  23 |   0 |-5.324929e+04 |-6.917036e+04 |  29.90%| unknown
  7.2s|     1 |     0 |  1974 |     - |   148M |   0 |9867 |  19k|  19k|   9 |  2 |  23 |   0 |-5.329125e+04 |-6.917036e+04 |  29.80%| unknown
 11.0s|     1 |     0 |  2146 |     - |   154M |   0 |9867 |  19k|  19k|  18 |  3 |  23 |   0 |-5.336416e+04 |-6.917036e+04 |  29.62%| unknown
 14.6s|     1 |     0 |  2317 |     - |   160M |   0 |9867 |  19k|  19k|  26 |  4 |  23 |   0 |-5.341219e+04 |-6.917036e+04 |  29.50%| unknown
 18.3s|     1 |     0 |  2514 |     - |   169M |   0 |9867 |  19k|  19k|  36 |  5 |  23 |   0 |-5.345756e+04 |-6.917036e+04 |  29.39%| unknown
 20.8s|     1 |     0 |  2683 |     - |   173M |   0 |9867 |  19k|  19k|  45 |  6 |  23 |   0 |-5.348180e+04 |-6.917036e+04 |  29.33%| unknown
 22.8s|     1 |     0 |  2865 |     - |   179M |   0 |9867 |  19k|  19k|  53 |  7 |  23 |   0 |-5.352819e+04 |-6.917036e+04 |  29.22%| unknown
 24.8s|     1 |     0 |  3054 |     - |   185M |   0 |9867 |  19k|  19k|  61 |  8 |  23 |   0 |-5.358712e+04 |-6.917036e+04 |  29.08%| unknown
 28.5s|     1 |     0 |  3222 |     - |   194M |   0 |9867 |  19k|  19k|  70 |  9 |  23 |   0 |-5.361905e+04 |-6.917036e+04 |  29.00%| unknown
 31.5s|     1 |     0 |  3429 |     - |   201M |   0 |9867 |  19k|  19k|  78 | 10 |  23 |   0 |-5.365176e+04 |-6.917036e+04 |  28.92%| unknown
 31.8s|     1 |     0 |  3516 |     - |   203M |   0 |9867 |  19k|  19k|  83 | 11 |  23 |   0 |-5.366992e+04 |-6.917036e+04 |  28.88%| unknown
 32.0s|     1 |     0 |  3607 |     - |   205M |   0 |9867 |  19k|  19k|  88 | 12 |  23 |   0 |-5.368267e+04 |-6.917036e+04 |  28.85%| unknown
 time | node  | left  |LP iter|LP it/n|mem/heur|mdpt |vars |cons |rows |cuts |sepa|confs|strbr|  dualbound   | primalbound  |  gap   | compl. 
 32.3s|     1 |     0 |  3713 |     - |   207M |   0 |9867 |  19k|  19k|  97 | 13 |  23 |   0 |-5.369663e+04 |-6.917036e+04 |  28.82%| unknown
r32.3s|     1 |     0 |  3713 |     - |rounding|   0 |9867 |  19k|  19k|  97 | 13 |  23 |   0 |-5.369663e+04 |-6.858803e+04 |  27.73%| unknown
 32.6s|     1 |     0 |  3854 |     - |   210M |   0 |9867 |  19k|  19k| 103 | 14 |  23 |   0 |-5.372039e+04 |-6.858803e+04 |  27.68%| unknown
 32.9s|     1 |     0 |  3941 |     - |   212M |   0 |9867 |  19k|  19k| 108 | 15 |  23 |   0 |-5.373015e+04 |-6.858803e+04 |  27.65%| unknown
 33.1s|     1 |     0 |  3990 |     - |   215M |   0 |9867 |  19k|  19k| 111 | 16 |  23 |   0 |-5.373642e+04 |-6.858803e+04 |  27.64%| unknown
 33.4s|     1 |     0 |  4071 |     - |   216M |   0 |9867 |  19k|  19k| 114 | 17 |  23 |   0 |-5.374124e+04 |-6.858803e+04 |  27.63%| unknown
 33.7s|     1 |     0 |  4211 |     - |   219M |   0 |9867 |  19k|  19k| 118 | 18 |  23 |   0 |-5.375555e+04 |-6.858803e+04 |  27.59%| unknown
 34.0s|     1 |     0 |  4322 |     - |   221M |   0 |9867 |  19k|  19k| 121 | 19 |  23 |   0 |-5.376354e+04 |-6.858803e+04 |  27.57%| unknown
 34.2s|     1 |     0 |  4378 |     - |   223M |   0 |9867 |  19k|  19k| 124 | 20 |  23 |   0 |-5.376752e+04 |-6.858803e+04 |  27.56%| unknown
 34.5s|     1 |     0 |  4435 |     - |   223M |   0 |9867 |  19k|  19k| 127 | 21 |  23 |   0 |-5.376979e+04 |-6.858803e+04 |  27.56%| unknown
 34.8s|     1 |     0 |  4484 |     - |   223M |   0 |9867 |  19k|  19k| 130 | 23 |  23 |   0 |-5.377103e+04 |-6.858803e+04 |  27.56%| unknown
 35.0s|     1 |     0 |  4516 |     - |   223M |   0 |9867 |  19k|  19k| 133 | 25 |  23 |   0 |-5.377157e+04 |-6.858803e+04 |  27.55%| unknown
 35.2s|     1 |     0 |  4518 |     - |   224M |   0 |9867 |  19k|  19k| 134 | 26 |  23 |   0 |-5.377161e+04 |-6.858803e+04 |  27.55%| unknown
 35.4s|     1 |     0 |  4533 |     - |   224M |   0 |9867 |  19k|  19k| 136 | 27 |  23 |   0 |-5.377176e+04 |-6.858803e+04 |  27.55%| unknown
d36.4s|     1 |     0 |  6160 |     - |farkasdi|   0 |9867 |  19k|  19k|   0 | 29 |  23 |   0 |-5.377176e+04 |-5.525873e+04 |   2.77%| unknown
 time | node  | left  |LP iter|LP it/n|mem/heur|mdpt |vars |cons |rows |cuts |sepa|confs|strbr|  dualbound   | primalbound  |  gap   | compl. 
L40.4s|     1 |     0 | 13049 |     - |    rens|   0 |9867 |  19k|  19k| 136 | 29 |  27 |   0 |-5.377176e+04 |-5.459701e+04 |   1.53%| unknown
 40.6s|     1 |     0 | 13049 |     - |   226M |   0 |9867 |  19k|  19k| 136 | 29 |  27 |   0 |-5.377176e+04 |-5.459701e+04 |   1.53%| unknown
 40.6s|     1 |     0 | 13049 |     - |   226M |   0 |9867 |  19k|  19k| 136 | 29 |  27 |   0 |-5.377176e+04 |-5.459701e+04 |   1.53%| unknown
 44.7s|     1 |     2 | 13049 |     - |   226M |   0 |9867 |  19k|  19k| 136 | 31 |  27 |  19 |-5.390052e+04 |-5.459701e+04 |   1.29%| unknown
(run 1, node 1) restarting after 304 global fixings of integer variables

(restart) converted 128 cuts from the global cut pool into linear constraints

presolving:
(round 1, fast)       304 del vars, 0 del conss, 0 add conss, 0 chg bounds, 0 chg sides, 7 chg coeffs, 0 upgd conss, 0 impls, 19175 clqs
(round 2, exhaustive) 304 del vars, 0 del conss, 0 add conss, 0 chg bounds, 0 chg sides, 7 chg coeffs, 127 upgd conss, 0 impls, 19175 clqs
presolving (3 rounds: 3 fast, 2 medium, 2 exhaustive):
 304 deleted vars, 0 deleted constraints, 0 added constraints, 0 tightened bounds, 0 added holes, 0 changed sides, 7 changed coefficients
 0 implications, 19175 cliques
presolved problem has 9563 variables (9563 bin, 0 int, 0 impl, 0 cont) and 19243 constraints
     40 constraints of type <knapsack>
  19175 constraints of type <setppc>
      1 constraints of type <linear>
     27 constraints of type <logicor>
Presolving Time: 0.63
transformed 8/8 original solutions to the transformed problem space

 time | node  | left  |LP iter|LP it/n|mem/heur|mdpt |vars |cons |rows |cuts |sepa|confs|strbr|  dualbound   | primalbound  |  gap   | compl. 
 45.7s|     1 |     0 | 15764 |     - |   219M |   0 |9563 |  19k|  19k|   0 |  0 |  27 |  19 |-5.390052e+04 |-5.459701e+04 |   1.29%| unknown
 47.4s|     1 |     0 | 15914 |     - |   222M |   0 |9563 |  19k|  19k|   2 |  1 |  27 |  19 |-5.390052e+04 |-5.459701e+04 |   1.29%| unknown
 50.3s|     1 |     0 | 16016 |     - |   227M |   0 |9563 |  19k|  19k|   5 |  2 |  27 |  19 |-5.390052e+04 |-5.459701e+04 |   1.29%| unknown
 52.1s|     1 |     0 | 16091 |     - |   229M |   0 |9563 |  19k|  19k|  10 |  3 |  27 |  19 |-5.390052e+04 |-5.459701e+04 |   1.29%| unknown
 52.1s|     1 |     0 | 16091 |     - |   230M |   0 |9563 |  19k|  19k|  10 |  3 |  27 |  19 |-5.390052e+04 |-5.459701e+04 |   1.29%| unknown
 53.8s|     1 |     0 | 16140 |     - |   232M |   0 |9563 |  19k|  19k|  13 |  4 |  27 |  19 |-5.390052e+04 |-5.459701e+04 |   1.29%| unknown
 53.9s|     1 |     0 | 16140 |     - |   232M |   0 |9563 |  19k|  19k|  13 |  4 |  27 |  19 |-5.390052e+04 |-5.459701e+04 |   1.29%| unknown
 55.6s|     1 |     0 | 16246 |     - |   232M |   0 |9563 |  19k|  19k|  17 |  5 |  27 |  19 |-5.390052e+04 |-5.459701e+04 |   1.29%| unknown
 57.3s|     1 |     0 | 16362 |     - |   234M |   0 |9563 |  19k|  19k|  19 |  6 |  27 |  19 |-5.390052e+04 |-5.459701e+04 |   1.29%| unknown
 60.1s|     1 |     0 | 16503 |     - |   237M |   0 |9563 |  19k|  19k|  21 |  7 |  27 |  19 |-5.390052e+04 |-5.459701e+04 |   1.29%| unknown
 60.1s|     1 |     0 | 16503 |     - |   237M |   0 |9563 |  19k|  19k|  21 |  7 |  27 |  19 |-5.390052e+04 |-5.459701e+04 |   1.29%| unknown
 62.2s|     1 |     0 | 16656 |     - |   242M |   0 |9563 |  19k|  19k|  27 |  8 |  27 |  19 |-5.390052e+04 |-5.459701e+04 |   1.29%| unknown
 62.2s|     1 |     0 | 16656 |     - |   242M |   0 |9563 |  19k|  19k|  27 |  8 |  27 |  19 |-5.390052e+04 |-5.459701e+04 |   1.29%| unknown
 63.8s|     1 |     0 | 16785 |     - |   244M |   0 |9563 |  19k|  19k|  31 |  9 |  27 |  19 |-5.390052e+04 |-5.459701e+04 |   1.29%| unknown
 65.5s|     1 |     0 | 16873 |     - |   244M |   0 |9563 |  19k|  19k|  34 | 10 |  27 |  19 |-5.390052e+04 |-5.459701e+04 |   1.29%| unknown
 time | node  | left  |LP iter|LP it/n|mem/heur|mdpt |vars |cons |rows |cuts |sepa|confs|strbr|  dualbound   | primalbound  |  gap   | compl. 
 65.5s|     1 |     0 | 16873 |     - |   244M |   0 |9563 |  19k|  19k|  34 | 10 |  27 |  19 |-5.390052e+04 |-5.459701e+04 |   1.29%| unknown
 65.8s|     1 |     0 | 16967 |     - |   246M |   0 |9563 |  19k|  19k|  37 | 11 |  27 |  19 |-5.390052e+04 |-5.459701e+04 |   1.29%| unknown
 65.8s|     1 |     0 | 16967 |     - |   246M |   0 |9563 |  19k|  19k|  37 | 11 |  27 |  19 |-5.390052e+04 |-5.459701e+04 |   1.29%| unknown
 66.1s|     1 |     0 | 17075 |     - |   246M |   0 |9563 |  19k|  19k|  39 | 12 |  27 |  19 |-5.390052e+04 |-5.459701e+04 |   1.29%| unknown
 66.2s|     1 |     0 | 17075 |     - |   247M |   0 |9563 |  19k|  19k|  39 | 12 |  27 |  19 |-5.390052e+04 |-5.459701e+04 |   1.29%| unknown
 66.4s|     1 |     0 | 17155 |     - |   249M |   0 |9563 |  19k|  19k|  43 | 13 |  27 |  19 |-5.390052e+04 |-5.459701e+04 |   1.29%| unknown
 66.5s|     1 |     0 | 17155 |     - |   249M |   0 |9563 |  19k|  19k|  43 | 13 |  27 |  19 |-5.390052e+04 |-5.459701e+04 |   1.29%| unknown
 66.7s|     1 |     0 | 17240 |     - |   251M |   0 |9563 |  19k|  19k|  47 | 14 |  27 |  19 |-5.390052e+04 |-5.459701e+04 |   1.29%| unknown
 66.8s|     1 |     0 | 17240 |     - |   251M |   0 |9563 |  19k|  19k|  47 | 14 |  27 |  19 |-5.390052e+04 |-5.459701e+04 |   1.29%| unknown
 67.0s|     1 |     0 | 17270 |     - |   253M |   0 |9563 |  19k|  19k|  48 | 15 |  27 |  19 |-5.390052e+04 |-5.459701e+04 |   1.29%| unknown
 67.3s|     1 |     0 | 17321 |     - |   255M |   0 |9563 |  19k|  19k|  50 | 16 |  27 |  19 |-5.390052e+04 |-5.459701e+04 |   1.29%| unknown
 67.6s|     1 |     0 | 17403 |     - |   257M |   0 |9563 |  19k|  19k|  52 | 17 |  27 |  19 |-5.390052e+04 |-5.459701e+04 |   1.29%| unknown
 67.6s|     1 |     0 | 17403 |     - |   257M |   0 |9563 |  19k|  19k|  52 | 17 |  27 |  19 |-5.390052e+04 |-5.459701e+04 |   1.29%| unknown
 74.9s|     1 |     2 | 20011 |     - |   257M |   0 |9563 |  19k|  19k|  52 | 17 |  31 |  38 |-5.391183e+04 |-5.459701e+04 |   1.27%| unknown
*91.8s|     9 |     3 | 22617 |1549.8 |strongbr|   5 |9563 |  19k|  19k|  52 |  2 |  52 | 147 |-5.401723e+04 |-5.450788e+04 |   0.91%|   8.93%
 time | node  | left  |LP iter|LP it/n|mem/heur|mdpt |vars |cons |rows |cuts |sepa|confs|strbr|  dualbound   | primalbound  |  gap   | compl. 
*92.6s|     9 |     3 | 22692 |1558.1 |strongbr|   5 |9563 |  19k|  19k|  52 |  4 |  52 | 165 |-5.401723e+04 |-5.447278e+04 |   0.84%|   8.93%
*94.9s|    10 |     2 | 23380 |1471.1 |strongbr|   5 |9563 |  19k|  19k|  52 |  6 |  59 | 193 |-5.401723e+04 |-5.446194e+04 |   0.82%|  10.07%
* 102s|    13 |     3 | 24559 |1222.3 |strongbr|   5 |9563 |  19k|  19k|  52 |  2 |  65 | 258 |-5.406652e+04 |-5.431125e+04 |   0.45%|  26.47%

SCIP Status        : problem is solved [optimal solution found]
Solving Time (sec) : 115.33
Solving Nodes      : 18 (total of 19 nodes in 2 runs)
Primal Bound       : -5.43112545720689e+04 (13 solutions)
Dual Bound         : -5.43112545720689e+04
Gap                : 0.00 %
Solve Status: optimal
Solve Time: 115.34 seconds
Objective Value: -54311.25
